feasible solution found by trivial heuristic after 2.7 seconds, objective value 0.000000e+00
presolving:
(round 1, fast)       80749 del vars, 1172302 del conss, 0 add conss, 2610 chg bounds, 2573 chg sides, 0 chg coeffs, 0 upgd conss, 0 impls, 2252 clqs
(round 2, fast)       80901 del vars, 1172675 del conss, 0 add conss, 2610 chg bounds, 2794 chg sides, 0 chg coeffs, 0 upgd conss, 0 impls, 2252 clqs
(round 3, fast)       81038 del vars, 1172675 del conss, 0 add conss, 2610 chg bounds, 2794 chg sides, 0 chg coeffs, 0 upgd conss, 0 impls, 2252 clqs
   (5.1s) running MILP presolver
   (5.1s) MILP presolver found nothing
(round 4, exhaustive) 81038 del vars, 1172675 del conss, 0 add conss, 2610 chg bounds, 2794 chg sides, 0 chg coeffs, 2252 upgd conss, 0 impls, 2252 clqs
   (5.1s) probing: 51/152 (33.6%) - 0 fixings, 0 aggregations, 0 implications, 0 bound changes
   (5.1s) probing aborted: 50/50 successive totally useless probings
   (5.1s) symmetry computation started: requiring (bin +, int -, cont +), (fixed: bin -, int +, cont -)
   (5.1s) no symmetry present
presolving (5 rounds: 5 fast, 2 medium, 2 exhaustive):
 81038 deleted vars, 1172675 deleted constraints, 0 added constraints, 2610 tightened bounds, 0 added holes, 2794 changed sides, 0 changed coefficients
 0 implications, 2252 cliques
presolved problem has 152 variables (152 bin, 0 int, 0 impl, 0 cont) and 2252 constraints
   2252 constraints of type <setppc>
Presolving Time: 2.81

 time | node  | left  |LP iter|LP it/n|mem/heur|mdpt |vars |cons |rows |cuts |sepa|confs|strbr|  dualbound   | primalbound  |  gap   | compl. 
t 5.1s|     1 |     0 |     0 |     - | trivial|   0 | 152 |2252 |   0 |   0 |  0 |   0 |   0 | 3.625110e+08 | 3.624557e+08 |   0.02%| unknown
p 5.1s|     1 |     0 |     0 |     - |  clique|   0 | 152 |2252 |2252 |   0 |  0 |   0 |   0 | 3.625110e+08 | 3.624638e+08 |   0.01%| unknown
  5.3s|     1 |     0 |   932 |     - |   801M |   0 | 152 |2252 |2252 |   0 |  0 |   0 |   0 | 3.624699e+08 | 3.624638e+08 |   0.00%| unknown
  5.4s|     1 |     0 |  1084 |     - |   802M |   0 | 152 |2252 |2253 |   1 |  1 |   0 |   0 | 3.624698e+08 | 3.624638e+08 |   0.00%| unknown
  5.4s|     1 |     0 |  1209 |     - |   803M |   0 | 152 |2252 |2254 |   2 |  2 |   0 |   0 | 3.624698e+08 | 3.624638e+08 |   0.00%| unknown
  5.5s|     1 |     0 |  1339 |     - |   805M |   0 | 152 |2252 |2255 |   3 |  3 |   0 |   0 | 3.624698e+08 | 3.624638e+08 |   0.00%| unknown
  5.6s|     1 |     0 |  1517 |     - |   807M |   0 | 152 |2252 |2257 |   5 |  4 |   0 |   0 | 3.624698e+08 | 3.624638e+08 |   0.00%| unknown
  5.6s|     1 |     0 |  1617 |     - |   808M |   0 | 152 |2252 |2258 |   6 |  5 |   0 |   0 | 3.624698e+08 | 3.624638e+08 |   0.00%| unknown
  5.7s|     1 |     0 |  1703 |     - |   809M |   0 | 152 |2252 |2259 |   7 |  6 |   0 |   0 | 3.624697e+08 | 3.624638e+08 |   0.00%| unknown
  5.8s|     1 |     0 |  1819 |     - |   811M |   0 | 152 |2252 |2260 |   8 |  7 |   0 |   0 | 3.624697e+08 | 3.624638e+08 |   0.00%| unknown
  5.9s|     1 |     0 |  1950 |     - |   811M |   0 | 152 |2252 |2261 |   9 |  8 |   0 |   0 | 3.624697e+08 | 3.624638e+08 |   0.00%| unknown
  6.0s|     1 |     0 |  2064 |     - |   813M |   0 | 152 |2252 |2263 |  11 |  9 |   0 |   0 | 3.624697e+08 | 3.624638e+08 |   0.00%| unknown
  6.1s|     1 |     0 |  2167 |     - |   815M |   0 | 152 |2252 |2264 |  12 | 10 |   0 |   0 | 3.624697e+08 | 3.624638e+08 |   0.00%| unknown
  6.1s|     1 |     0 |  2331 |     - |   815M |   0 | 152 |2252 |2268 |  16 | 11 |   0 |   0 | 3.624697e+08 | 3.624638e+08 |   0.00%| unknown
  6.1s|     1 |     0 |  2382 |     - |   815M |   0 | 152 |2252 |2269 |  17 | 12 |   0 |   0 | 3.624697e+08 | 3.624638e+08 |   0.00%| unknown
 time | node  | left  |LP iter|LP it/n|mem/heur|mdpt |vars |cons |rows |cuts |sepa|confs|strbr|  dualbound   | primalbound  |  gap   | compl. 
  6.2s|     1 |     0 |  2422 |     - |   815M |   0 | 152 |2252 |2271 |  19 | 13 |   0 |   0 | 3.624697e+08 | 3.624638e+08 |   0.00%| unknown
d 6.4s|     1 |     0 |  3463 |     - |farkasdi|   0 | 152 |2252 |2271 |   0 | 15 |   0 |   0 | 3.624697e+08 | 3.624648e+08 |   0.00%| unknown
  6.4s|     1 |     0 |  3463 |     - |   815M |   0 | 152 |2252 |2271 |  19 | 15 |   0 |   0 | 3.624697e+08 | 3.624648e+08 |   0.00%| unknown
  6.4s|     1 |     0 |  3516 |     - |   815M |   0 | 152 |2252 |2273 |  21 | 16 |   0 |   0 | 3.624697e+08 | 3.624648e+08 |   0.00%| unknown
 10.0s|     1 |     2 |  3516 |     - |   816M |   0 | 152 |2252 |2273 |  21 | 17 |   0 |  34 | 3.624695e+08 | 3.624648e+08 |   0.00%| unknown
*11.5s|     4 |     3 |  4419 | 652.0 |strongbr|   3 | 152 |2252 |2267 |  21 |  1 |   0 |  77 | 3.624695e+08 | 3.624668e+08 |   0.00%| unknown

SCIP Status        : problem is solved [optimal solution found]
Solving Time (sec) : 27.60
Solving Nodes      : 87
Primal Bound       : +3.62466797978703e+08 (156 solutions)
Dual Bound         : +3.62466797978703e+08
Gap                : 0.00 %
Solve Status: optimal
Solve Time: 27.73 seconds
